StringID   Type       x          y          demand     ReadyTime  DueDate    ServiceTime  wp1 wp2 wp3 wp4 wp5 wp6 wp7 wp8 wp9 wp10 wp11 wp12 wp13 wp14 wp15 wp16 wp17 wp18 wp19 wp20 wp21
D0         d          40.0       50.0       0.0        0.0        1236.0     0.0          6   7   8   9   10  11  12  13  14  15   16   17   18   19   20   21   22   23   24   1    2 
S0         f          40.0       50.0       0.0        0.0        1236.0     0.0          0.2 0.4 0.6 1   1   1   1   1   1   1    1    0.6  0.4  0.2  0    0    0    0    0    0    0
S5         f          31.0       84.0       0.0        0.0        1236.0     0.0          0   0.1 0.2 0.3 0.3 0.2 0.2 0.2 0.2 0.3  0.3  0.2  0.1  0.0  0    0    0    0    0    0    0
S15        f          39.0       26.0       0.0        0.0        1236.0     0.0          0   0.1 0.2 0.3 0.3 0.2 0.2 0.2 0.2 0.3  0.3  0.2  0.1  0.0  0    0    0    0    0    0    0
C30        c          20.0       55.0       10.0       355.0      407.0      90.0         0.2 0.4 0.6 1   1   1   1   1   1   1    1    0.6  0.4  0.2  0    0    0    0    0    0    0 
C12        c          25.0       85.0       20.0       176.0      228.0      90.0         
C100       c          55.0       85.0       20.0       744.0      798.0      90.0         
C85        c          68.0       60.0       30.0       737.0      809.0      90.0        
C64        c          48.0       30.0       10.0       263.0      325.0      90.0         

F Vehicle fuel tank capacity /12/
Q Vehicle load capacity /200.0/
r fuel consumption rate /0.155/
m inverse refueling rate /0.5/
v average Velocity /1.0/
